(synth-fun lemma ((x Int) (nil Int)) Bool
           ((Start Bool) (Loc Int))

           ((Start Bool (false
                   (=> Start Start)
                   (not (= Loc nil))
                   (member x (htree x))
                   (tree Loc)
                   (maxheap Loc)))
            (Loc Int (x)))
)

(synth-fun rswitch () Int
           ((Start Int))
           ((Start Int (0 1)))
)
